c 
p cnf 10 40
-7 10 8 0
1 2 10 0
-7 -3 -5 0
6 -2 1 0
4 5 -8 0
-8 4 1 0
-3 5 -9 0
-6 -4 -2 0
-7 1 -8 0
-8 -5 3 0
-1 -7 5 0
8 -4 1 0
4 10 -6 0
6 -8 9 0
-9 -5 -3 0
-7 -5 9 0
6 -5 -9 0
2 -9 -1 0
7 -5 2 0
5 -3 -1 0
-6 1 -8 0
8 -9 4 0
8 7 5 0
9 10 7 0
-9 7 -5 0
8 -5 -6 0
-6 1 2 0
-2 -9 -6 0
9 -10 8 0
-10 -5 6 0
7 6 -8 0
4 -8 -6 0
10 -8 -6 0
-7 5 4 0
-2 1 6 0
9 -6 -4 0
-8 4 -7 0
9 3 -8 0
8 6 -9 0
-8 2 -6 0
